NAME PortOpt_n10_m4_inst_1
ROWS
 N  OBJ
 E  budget  
 G  return  
 L  uncertain_risk
 L  fixed_risk
COLUMNS
    asset[0]  budget    1
    asset[0]  return    2.3574336983460267e+00
    asset[1]  budget    1
    asset[1]  return    2.0192940585281156e+00
    asset[2]  budget    1
    asset[2]  return    3.7455642333866779e+00
    asset[3]  budget    1
    asset[3]  return    4.4845848756016524e+00
    asset[4]  budget    1
    asset[4]  return    3.6351542339297240e+00
    asset[5]  budget    1
    asset[5]  return    1.1185900787609391e+00
    asset[6]  budget    1
    asset[6]  return    1.8222403924631307e+00
    asset[7]  budget    1
    asset[7]  return    2.1652210623328427e+00
    asset[8]  budget    1
    asset[8]  return    2.1120290740940391e+00
    asset[9]  budget    1
    asset[9]  return    4.6868525618833905e+00
    return_var  OBJ       -1
    return_var  return    -1
    uncertain_risk_var  OBJ       1
    uncertain_risk_var  uncertain_risk  -1
    fixed_risk_var  OBJ       1
    fixed_risk_var  fixed_risk  -1
RHS
    RHS1      budget    1
BOUNDS
QCMATRIX   uncertain_risk
    asset[0]  asset[0]  1.5122321203889433e-01
    asset[0]  asset[1]  -7.7534903409335859e-02
    asset[1]  asset[0]  -7.7534903409335859e-02
    asset[0]  asset[2]  -3.3208778618756020e-02
    asset[2]  asset[0]  -3.3208778618756020e-02
    asset[0]  asset[3]  2.7386085066425481e-02
    asset[3]  asset[0]  2.7386085066425481e-02
    asset[0]  asset[4]  -1.6967112552525324e-02
    asset[4]  asset[0]  -1.6967112552525324e-02
    asset[0]  asset[5]  -4.5415970669500497e-02
    asset[5]  asset[0]  -4.5415970669500497e-02
    asset[0]  asset[6]  4.5788006623367853e-03
    asset[6]  asset[0]  4.5788006623367853e-03
    asset[0]  asset[7]  3.3441057295160351e-02
    asset[7]  asset[0]  3.3441057295160351e-02
    asset[0]  asset[8]  6.3291967618784084e-02
    asset[8]  asset[0]  6.3291967618784084e-02
    asset[0]  asset[9]  -1.3076203031478320e-01
    asset[9]  asset[0]  -1.3076203031478320e-01
    asset[1]  asset[1]  4.2782503120862125e-02
    asset[1]  asset[2]  3.3924693304895247e-02
    asset[2]  asset[1]  3.3924693304895247e-02
    asset[1]  asset[3]  -1.1485526471890143e-02
    asset[3]  asset[1]  -1.1485526471890143e-02
    asset[1]  asset[4]  1.3675800353580951e-02
    asset[4]  asset[1]  1.3675800353580951e-02
    asset[1]  asset[5]  2.4270156198416978e-02
    asset[5]  asset[1]  2.4270156198416978e-02
    asset[1]  asset[6]  1.2003096231613769e-02
    asset[6]  asset[1]  1.2003096231613769e-02
    asset[1]  asset[7]  -1.0051877502532256e-02
    asset[7]  asset[1]  -1.0051877502532256e-02
    asset[1]  asset[8]  -3.8634347526421232e-02
    asset[8]  asset[1]  -3.8634347526421232e-02
    asset[1]  asset[9]  5.9512839079654316e-02
    asset[9]  asset[1]  5.9512839079654316e-02
    asset[2]  asset[2]  1.5544123374769458e-01
    asset[2]  asset[3]  -7.3157276720748517e-03
    asset[3]  asset[2]  -7.3157276720748517e-03
    asset[2]  asset[4]  4.6897905359501439e-02
    asset[4]  asset[2]  4.6897905359501439e-02
    asset[2]  asset[5]  -7.8536626247335539e-03
    asset[5]  asset[2]  -7.8536626247335539e-03
    asset[2]  asset[6]  8.2161060369728603e-02
    asset[6]  asset[2]  8.2161060369728603e-02
    asset[2]  asset[7]  6.3754087620443406e-02
    asset[7]  asset[2]  6.3754087620443406e-02
    asset[2]  asset[8]  -5.5660823347830707e-02
    asset[8]  asset[2]  -5.5660823347830707e-02
    asset[2]  asset[9]  -2.9041029146602441e-02
    asset[9]  asset[2]  -2.9041029146602441e-02
    asset[3]  asset[3]  1.2206030715104683e-02
    asset[3]  asset[4]  -2.0275646590912598e-03
    asset[4]  asset[3]  -2.0275646590912598e-03
    asset[3]  asset[5]  -1.7141583387020850e-03
    asset[5]  asset[3]  -1.7141583387020850e-03
    asset[3]  asset[6]  1.0238649075168945e-02
    asset[6]  asset[3]  1.0238649075168945e-02
    asset[3]  asset[7]  -9.7641300915881236e-04
    asset[7]  asset[3]  -9.7641300915881236e-04
    asset[3]  asset[8]  8.6879687524496138e-03
    asset[8]  asset[3]  8.6879687524496138e-03
    asset[3]  asset[9]  -2.5953397556160843e-02
    asset[9]  asset[3]  -2.5953397556160843e-02
    asset[4]  asset[4]  1.7305960242272638e-02
    asset[4]  asset[5]  -2.2508738212956491e-03
    asset[5]  asset[4]  -2.2508738212956491e-03
    asset[4]  asset[6]  2.0032179098034321e-02
    asset[6]  asset[4]  2.0032179098034321e-02
    asset[4]  asset[7]  8.4045955028389119e-03
    asset[7]  asset[4]  8.4045955028389119e-03
    asset[4]  asset[8]  -1.8587796270897926e-02
    asset[8]  asset[4]  -1.8587796270897926e-02
    asset[4]  asset[9]  -3.2132549239286944e-03
    asset[9]  asset[4]  -3.2132549239286944e-03
    asset[5]  asset[5]  2.5920671237461758e-02
    asset[5]  asset[6]  5.1360415744500249e-03
    asset[6]  asset[5]  5.1360415744500249e-03
    asset[5]  asset[7]  -1.4450838557711763e-02
    asset[7]  asset[5]  -1.4450838557711763e-02
    asset[5]  asset[8]  -1.8484211617276619e-02
    asset[8]  asset[5]  -1.8484211617276619e-02
    asset[5]  asset[9]  4.4457445776896809e-02
    asset[9]  asset[5]  4.4457445776896809e-02
    asset[6]  asset[6]  7.3761235870939662e-02
    asset[6]  asset[7]  4.8279624281378553e-02
    asset[7]  asset[6]  4.8279624281378553e-02
    asset[6]  asset[8]  -2.8842511559915435e-02
    asset[8]  asset[6]  -2.8842511559915435e-02
    asset[6]  asset[9]  -3.9145572953204588e-02
    asset[9]  asset[6]  -3.9145572953204588e-02
    asset[7]  asset[7]  6.8163743658437789e-02
    asset[7]  asset[8]  -7.0035361930854845e-03
    asset[8]  asset[7]  -7.0035361930854845e-03
    asset[7]  asset[9]  -5.2716838369703867e-02
    asset[9]  asset[7]  -5.2716838369703867e-02
    asset[8]  asset[8]  4.0292528628228019e-02
    asset[8]  asset[9]  -3.7499642267898536e-02
    asset[9]  asset[8]  -3.7499642267898536e-02
    asset[9]  asset[9]  1.3675534707365331e-01
QCMATRIX   fixed_risk
    asset[0]  asset[0]  1.5434602574512036e-02
    asset[1]  asset[1]  4.1353777488754078e-03
    asset[2]  asset[2]  1.5346334032521773e-02
    asset[3]  asset[3]  1.2024971038473572e-03
    asset[4]  asset[4]  1.4419208985186787e-03
    asset[5]  asset[5]  2.6877921388782115e-03
    asset[6]  asset[6]  7.7170749197047602e-03
    asset[7]  asset[7]  6.5618174907869937e-03
    asset[8]  asset[8]  3.9326600274268110e-03
    asset[9]  asset[9]  1.2563574247980207e-02
ENDATA
